<?xml version = "1.0" standalone="yes"?>
<!-- This file has been generated by DOcplex version 2.23.222  -->
<CPLEXSolution version="1.0">
 <header
   problemName="CVRP"
   objectiveValue="22846.6"
  />
 <variables>
  <variable name="x_0_1" index="0" value="1.00000"/>
  <variable name="x_0_3" index="2" value="1.00000"/>
  <variable name="x_0_7" index="6" value="1.00000"/>
  <variable name="x_0_8" index="7" value="1.00000"/>
  <variable name="x_0_12" index="11" value="1.00000"/>
  <variable name="x_0_13" index="12" value="1.00000"/>
  <variable name="x_0_14" index="13" value="1.00000"/>
  <variable name="x_0_15" index="14" value="1.00000"/>
  <variable name="x_0_16" index="15" value="1.00000"/>
  <variable name="x_0_17" index="16" value="1.00000"/>
  <variable name="x_0_18" index="17" value="1.00000"/>
  <variable name="x_0_19" index="18" value="1.00000"/>
  <variable name="x_0_20" index="19" value="1.00000"/>
  <variable name="x_0_21" index="20" value="1.00000"/>
  <variable name="x_0_23" index="22" value="1.00000"/>
  <variable name="x_0_25" index="24" value="1.00000"/>
  <variable name="x_0_28" index="27" value="1.00000"/>
  <variable name="x_1_26" index="53" value="1.00000"/>
  <variable name="x_2_22" index="77" value="1.00000"/>
  <variable name="x_3_0" index="84" value="1.00000"/>
  <variable name="x_4_27" index="138" value="1.00000"/>
  <variable name="x_5_0" index="140" value="1.00000"/>
  <variable name="x_6_0" index="168" value="1.00000"/>
  <variable name="x_7_10" index="205" value="1.00000"/>
  <variable name="x_8_0" index="224" value="1.00000"/>
  <variable name="x_9_5" index="257" value="1.00000"/>
  <variable name="x_10_0" index="280" value="1.00000"/>
  <variable name="x_11_0" index="308" value="1.00000"/>
  <variable name="x_12_0" index="336" value="1.00000"/>
  <variable name="x_13_24" index="387" value="1.00000"/>
  <variable name="x_14_0" index="392" value="1.00000"/>
  <variable name="x_15_2" index="422" value="1.00000"/>
  <variable name="x_16_0" index="448" value="1.00000"/>
  <variable name="x_17_0" index="476" value="1.00000"/>
  <variable name="x_18_0" index="504" value="1.00000"/>
  <variable name="x_19_6" index="538" value="1.00000"/>
  <variable name="x_20_11" index="571" value="1.00000"/>
  <variable name="x_21_0" index="588" value="1.00000"/>
  <variable name="x_22_0" index="616" value="1.00000"/>
  <variable name="x_23_4" index="648" value="1.00000"/>
  <variable name="x_24_0" index="672" value="1.00000"/>
  <variable name="x_25_0" index="700" value="1.00000"/>
  <variable name="x_26_0" index="728" value="1.00000"/>
  <variable name="x_27_0" index="756" value="1.00000"/>
  <variable name="x_28_9" index="793" value="1.00000"/>
  <variable name="u_1" index="812" value="24.00000"/>
  <variable name="u_2" index="813" value="8.00000"/>
  <variable name="u_3" index="814" value="28.00000"/>
  <variable name="u_4" index="815" value="16.00000"/>
  <variable name="u_5" index="816" value="28.00000"/>
  <variable name="u_6" index="817" value="27.00000"/>
  <variable name="u_7" index="818" value="18.00000"/>
  <variable name="u_8" index="819" value="28.00000"/>
  <variable name="u_9" index="820" value="26.00000"/>
  <variable name="u_10" index="821" value="27.00000"/>
  <variable name="u_11" index="822" value="28.00000"/>
  <variable name="u_12" index="823" value="24.00000"/>
  <variable name="u_13" index="824" value="24.00000"/>
  <variable name="u_14" index="825" value="27.00000"/>
  <variable name="u_15" index="826" value="5.00000"/>
  <variable name="u_16" index="827" value="27.00000"/>
  <variable name="u_17" index="828" value="28.00000"/>
  <variable name="u_18" index="829" value="25.00000"/>
  <variable name="u_19" index="830" value="14.00000"/>
  <variable name="u_20" index="831" value="24.00000"/>
  <variable name="u_21" index="832" value="14.00000"/>
  <variable name="u_22" index="833" value="28.00000"/>
  <variable name="u_23" index="834" value="2.00000"/>
  <variable name="u_24" index="835" value="28.00000"/>
  <variable name="u_25" index="836" value="28.00000"/>
  <variable name="u_26" index="837" value="28.00000"/>
  <variable name="u_27" index="838" value="28.00000"/>
  <variable name="u_28" index="839" value="6.00000"/>
 </variables>
</CPLEXSolution>
